(push)
(check-sat)
(get-value ((symbolAt 1 z20)(symbolAt 1 z21)(symbolAt 1 z22)(symbolAt 1 z23)(symbolAt 1 in_extra)))
(get-value (z20 z21 z22 z23 in_extra))
(get-value ((symbolAt 1 0) (symbolAt 1 1)(symbolAt 1 2)(symbolAt 1 3)(symbolAt 1 4)(symbolAt 1 5)(symbolAt 1 6)(symbolAt 1 7)(symbolAt 1 8)(symbolAt 1 9)(symbolAt 1 10)(symbolAt 1 11)(symbolAt 1 12)(symbolAt 1 13)(symbolAt 1 14)(symbolAt 1 15)(symbolAt 1 16)(symbolAt 1 17)(symbolAt 1 18)(symbolAt 1 19)(symbolAt 1 20)(symbolAt 1 21)(symbolAt 1 22)(symbolAt 1 23)(symbolAt 1 24)(symbolAt 1 25)(symbolAt 1 26)(symbolAt 1 27)(symbolAt 1 28)(symbolAt 1 29)(symbolAt 1 30)(symbolAt 1 31)(symbolAt 1 32)(symbolAt 1 33)(symbolAt 1 34)(symbolAt 1 35)(symbolAt 1 36)(symbolAt 1 37)(symbolAt 1 38)(symbolAt 1 39)(symbolAt 1 40)(symbolAt 1 41)(symbolAt 1 42)(symbolAt 1 43)(symbolAt 1 44)(symbolAt 1 45)(symbolAt 1 46)(symbolAt 1 47)(symbolAt 1 48)(symbolAt 1 49)(symbolAt 1 50)(symbolAt 1 51)(symbolAt 1 52)(symbolAt 1 53)(symbolAt 1 54)(symbolAt 1 55)(symbolAt 1 56)(symbolAt 1 57)(symbolAt 1 58)(symbolAt 1 59)(symbolAt 1 60)(symbolAt 1 61)(symbolAt 1 62)(symbolAt 1 63)(symbolAt 1 64)(symbolAt 1 65)(symbolAt 1 66)(symbolAt 1 67)(symbolAt 1 68)(symbolAt 1 69)(symbolAt 1 70)(symbolAt 1 71)(symbolAt 1 72)(symbolAt 1 73)(symbolAt 1 74)(symbolAt 1 75)(symbolAt 1 76)(symbolAt 1 77)(symbolAt 1 78)(symbolAt 1 79)(symbolAt 1 80)(symbolAt 1 81)(symbolAt 1 82)(symbolAt 1 83)(symbolAt 1 84)(symbolAt 1 85)(symbolAt 1 86)(symbolAt 1 87)(symbolAt 1 88)(symbolAt 1 89)(symbolAt 1 90)(symbolAt 1 91)(symbolAt 1 92)(symbolAt 1 93)(symbolAt 1 94)(symbolAt 1 95)(symbolAt 1 96)(symbolAt 1 97)(symbolAt 1 98)(symbolAt 1 99)(symbolAt 1 100)(symbolAt 1 101)(symbolAt 1 102)(symbolAt 1 103)(symbolAt 1 104)(symbolAt 1 105)(symbolAt 1 106)(symbolAt 1 107)(symbolAt 1 108)(symbolAt 1 109)(symbolAt 1 110)(symbolAt 1 111)(symbolAt 1 112)(symbolAt 1 113)(symbolAt 1 114)(symbolAt 1 115)(symbolAt 1 116)(symbolAt 1 117)(symbolAt 1 118)(symbolAt 1 119)(symbolAt 1 120)(symbolAt 1 121)(symbolAt 1 122)(symbolAt 1 123)(symbolAt 1 124)(symbolAt 1 125)(symbolAt 1 126)(symbolAt 1 127)(symbolAt 1 128)(symbolAt 1 129)(symbolAt 1 130)(symbolAt 1 131)(symbolAt 1 132)(symbolAt 1 133)(symbolAt 1 134)(symbolAt 1 135)(symbolAt 1 136)(symbolAt 1 137)(symbolAt 1 138)(symbolAt 1 139)(symbolAt 1 140)(symbolAt 1 141)(symbolAt 1 142)(symbolAt 1 143)(symbolAt 1 144)(symbolAt 1 145)(symbolAt 1 146)(symbolAt 1 147)(symbolAt 1 148)(symbolAt 1 149)(symbolAt 1 150)(symbolAt 1 151)(symbolAt 1 152)(symbolAt 1 153)(symbolAt 1 154)(symbolAt 1 155)(symbolAt 1 156)(symbolAt 1 157)(symbolAt 1 158)(symbolAt 1 159)(symbolAt 1 160)(symbolAt 1 161)(symbolAt 1 162)(symbolAt 1 163)(symbolAt 1 164)(symbolAt 1 165)(symbolAt 1 166)(symbolAt 1 167)(symbolAt 1 168)(symbolAt 1 169)(symbolAt 1 170)(symbolAt 1 171)(symbolAt 1 172)(symbolAt 1 173)(symbolAt 1 174)(symbolAt 1 175)(symbolAt 1 176)(symbolAt 1 177)(symbolAt 1 178)(symbolAt 1 179)(symbolAt 1 180)(symbolAt 1 181)(symbolAt 1 182)(symbolAt 1 183)(symbolAt 1 184)(symbolAt 1 185)(symbolAt 1 186)(symbolAt 1 187)(symbolAt 1 188)(symbolAt 1 189)(symbolAt 1 190)(symbolAt 1 191)(symbolAt 1 192)(symbolAt 1 193)(symbolAt 1 194)(symbolAt 1 195)(symbolAt 1 196)(symbolAt 1 197)(symbolAt 1 198)(symbolAt 1 199)(symbolAt 1 200)(symbolAt 1 201)(symbolAt 1 202)(symbolAt 1 203)(symbolAt 1 204)(symbolAt 1 205)(symbolAt 1 206)(symbolAt 1 207)(symbolAt 1 208)(symbolAt 1 209)(symbolAt 1 210)(symbolAt 1 211)(symbolAt 1 212)(symbolAt 1 213)(symbolAt 1 214)(symbolAt 1 215)(symbolAt 1 216)(symbolAt 1 217)(symbolAt 1 218)(symbolAt 1 219)(symbolAt 1 220)(symbolAt 1 221)(symbolAt 1 222)(symbolAt 1 223)(symbolAt 1 224)(symbolAt 1 225)(symbolAt 1 226)(symbolAt 1 227)(symbolAt 1 228)(symbolAt 1 229)(symbolAt 1 230)(symbolAt 1 231)(symbolAt 1 232)(symbolAt 1 233)(symbolAt 1 234)(symbolAt 1 235)(symbolAt 1 236)(symbolAt 1 237)(symbolAt 1 238)(symbolAt 1 239)(symbolAt 1 240)(symbolAt 1 241)(symbolAt 1 242)(symbolAt 1 243)(symbolAt 1 244)(symbolAt 1 245)(symbolAt 1 246)(symbolAt 1 247)(symbolAt 1 248)(symbolAt 1 249)(symbolAt 1 250)(symbolAt 1 251)(symbolAt 1 252)(symbolAt 1 253)(symbolAt 1 254)(symbolAt 1 255)(symbolAt 1 256)(symbolAt 1 257)(symbolAt 1 258)(symbolAt 1 259)))
(pop)
